certificates/rado_a10_c126_N29.cnf
c Rad2 upper bound instance: x1 + 10*x2 - x3 = 126, interval [1,29]
p cnf 29 168
1 5 13 0
-1 -5 -13 0
1 14 15 0
-1 -14 -15 0
1 15 25 0
-1 -15 -25 0
2 6 13 0
-2 -6 -13 0
2 14 16 0
-2 -14 -16 0
2 15 26 0
-2 -15 -26 0
3 7 13 0
-3 -7 -13 0
3 14 17 0
-3 -14 -17 0
3 15 27 0
-3 -15 -27 0
4 8 13 0
-4 -8 -13 0
4 14 18 0
-4 -14 -18 0
4 15 28 0
-4 -15 -28 0
5 9 13 0
-5 -9 -13 0
5 14 19 0
-5 -14 -19 0
5 15 29 0
-5 -15 -29 0
6 10 13 0
-6 -10 -13 0
6 14 20 0
-6 -14 -20 0
1 7 12 0
-1 -7 -12 0
7 11 13 0
-7 -11 -13 0
7 14 21 0
-7 -14 -21 0
2 8 12 0
-2 -8 -12 0
8 12 13 0
-8 -12 -13 0
8 14 22 0
-8 -14 -22 0
3 9 12 0
-3 -9 -12 0
9 13 0
-9 -13 0
9 14 23 0
-9 -14 -23 0
4 10 12 0
-4 -10 -12 0
10 13 14 0
-10 -13 -14 0
10 14 24 0
-10 -14 -24 0
5 11 12 0
-5 -11 -12 0
11 13 15 0
-11 -13 -15 0
11 14 25 0
-11 -14 -25 0
6 12 0
-6 -12 0
12 13 16 0
-12 -13 -16 0
12 14 26 0
-12 -14 -26 0
7 12 13 0
-7 -12 -13 0
13 17 0
-13 -17 0
13 14 27 0
-13 -14 -27 0
8 12 14 0
-8 -12 -14 0
13 14 18 0
-13 -14 -18 0
14 28 0
-14 -28 0
9 12 15 0
-9 -12 -15 0
13 15 19 0
-13 -15 -19 0
14 15 29 0
-14 -15 -29 0
10 12 16 0
-10 -12 -16 0
13 16 20 0
-13 -16 -20 0
1 11 17 0
-1 -11 -17 0
11 12 17 0
-11 -12 -17 0
13 17 21 0
-13 -17 -21 0
2 11 18 0
-2 -11 -18 0
12 18 0
-12 -18 0
13 18 22 0
-13 -18 -22 0
3 11 19 0
-3 -11 -19 0
12 13 19 0
-12 -13 -19 0
13 19 23 0
-13 -19 -23 0
4 11 20 0
-4 -11 -20 0
12 14 20 0
-12 -14 -20 0
13 20 24 0
-13 -20 -24 0
5 11 21 0
-5 -11 -21 0
12 15 21 0
-12 -15 -21 0
13 21 25 0
-13 -21 -25 0
6 11 22 0
-6 -11 -22 0
12 16 22 0
-12 -16 -22 0
13 22 26 0
-13 -22 -26 0
7 11 23 0
-7 -11 -23 0
12 17 23 0
-12 -17 -23 0
13 23 27 0
-13 -23 -27 0
8 11 24 0
-8 -11 -24 0
12 18 24 0
-12 -18 -24 0
13 24 28 0
-13 -24 -28 0
9 11 25 0
-9 -11 -25 0
12 19 25 0
-12 -19 -25 0
13 25 29 0
-13 -25 -29 0
10 11 26 0
-10 -11 -26 0
12 20 26 0
-12 -20 -26 0
1 10 27 0
-1 -10 -27 0
11 27 0
-11 -27 0
12 21 27 0
-12 -21 -27 0
2 10 28 0
-2 -10 -28 0
11 12 28 0
-11 -12 -28 0
12 22 28 0
-12 -22 -28 0
3 10 29 0
-3 -10 -29 0
11 13 29 0
-11 -13 -29 0
12 23 29 0
-12 -23 -29 0
