certificates/rado_a10_c126_N29.drat
11 14 -29 0
14 -29 0
d 11 14 -29 0
-29 0
-13 -11 0
27 0
-11 0
13 0
-9 0
-17 0
-14 0
-23 0
0
